Version identifier: 20.1.0.0 | 2020-11-10 | 9bedb6d68
Tried aggregator 2 times.
MIP Presolve eliminated 674 rows and 376 columns.
MIP Presolve modified 1269 coefficients.
Aggregator did 81 substitutions.
Reduced MIP has 526 rows, 450 columns, and 1666 nonzeros.
Reduced MIP has 122 binaries, 328 generals, 0 SOSs, and 0 indicators.
Presolve time = 0.01 sec. (2.73 ticks)
Found incumbent of value 539.000000 after 0.01 sec. (4.24 ticks)
Probing fixed 13 vars, tightened 93 bounds.
Probing time = 0.00 sec. (0.44 ticks)
Tried aggregator 2 times.
Detecting symmetries...
MIP Presolve eliminated 195 rows and 15 columns.
MIP Presolve modified 38 coefficients.
Aggregator did 2 substitutions.
Reduced MIP has 329 rows, 433 columns, and 1062 nonzeros.
Reduced MIP has 159 binaries, 274 generals, 0 SOSs, and 0 indicators.
Presolve time = 0.00 sec. (1.44 ticks)
Probing time = 0.00 sec. (0.13 ticks)
Clique table members: 37.
MIP emphasis: balance optimality and feasibility.
MIP search method: dynamic search.
Parallel mode: deterministic, using up to 24 threads.
Root relaxation solution time = 0.00 sec. (1.01 ticks)

        Nodes                                         Cuts/
   Node  Left     Objective  IInf  Best Integer    Best Bound    ItCnt     Gap

*     0+    0                          539.0000        0.0000           100.00%
      0     0        0.0000    48      539.0000        0.0000      129  100.00%
      0     0        1.1667    65      539.0000      Cuts: 98      258   99.78%
*     0+    0                           16.0000        1.1667            92.71%
      0     0        2.0000   129       16.0000      Cuts: 64      352   87.50%
      0     0        2.0000    88       16.0000      Cuts: 37      386   87.50%
      0     0        2.0000    84       16.0000      Cuts: 32      425   87.50%
      0     0        2.0000    84       16.0000      Cuts: 39      452   87.50%
      0     0        2.3346   164       16.0000      Cuts: 28      562   85.41%
      0     0        2.5714   105       16.0000      Cuts: 66      601   83.93%
      0     0        2.6364   114       16.0000      Cuts: 29      622   83.52%
      0     0        2.6364   120       16.0000      Cuts: 22      652   83.52%
*     0+    0                           12.0000        2.6364            78.03%
*     0+    0                            9.0000        2.6364            70.71%
      0     0        cutoff              9.0000        9.0000      652    0.00%
Elapsed time = 0.37 sec. (56.36 ticks, tree = 0.01 MB, solutions = 4)

Implied bound cuts applied:  20
Flow cuts applied:  7
Mixed integer rounding cuts applied:  7
Zero-half cuts applied:  29
Lift and project cuts applied:  4
Gomory fractional cuts applied:  3

Root node processing (before b&c):
  Real time             =    0.37 sec. (56.42 ticks)
Parallel b&c, 24 threads:
  Real time             =    0.00 sec. (0.00 ticks)
  Sync time (average)   =    0.00 sec.
  Wait time (average)   =    0.00 sec.
                          ------------
Total (root+branch&cut) =    0.37 sec. (56.42 ticks)

Solution status = Optimal
Solution LB = 9
Solution UB = 9
Runtime = 0.374452 seconds
	Command being timed: "/home/min/git_repos/CS598MEBProject/CNT-ILP/build/cnt -s 2 ./output/k6_n15/simC_c1_k6_n15_u2_s2_del04.input-right.cnp"
	User time (seconds): 5.61
	System time (seconds): 0.04
	Percent of CPU this job got: 1462%
	Elapsed (wall clock) time (h:mm:ss or m:ss): 0:00.38
	Average shared text size (kbytes): 0
	Average unshared data size (kbytes): 0
	Average stack size (kbytes): 0
	Average total size (kbytes): 0
	Maximum resident set size (kbytes): 63404
	Average resident set size (kbytes): 0
	Major (requiring I/O) page faults: 0
	Minor (reclaiming a frame) page faults: 13534
	Voluntary context switches: 2898
	Involuntary context switches: 869
	Swaps: 0
	File system inputs: 0
	File system outputs: 16
	Socket messages sent: 0
	Socket messages received: 0
	Signals delivered: 0
	Page size (bytes): 4096
	Exit status: 0
